&GLOBAL
  PROJECT ec
  RUN_TYPE GEO_OPT
  PRINT_LEVEL LOW
&END GLOBAL

&FORCE_EVAL
  METHOD Quickstep
  &SUBSYS
    &KIND H
      ELEMENT H
      BASIS_SET DZVP-GTH
      POTENTIAL GTH-BP-q1
    &END KIND
    &KIND C
      ELEMENT C
      BASIS_SET DZVP-GTH
      POTENTIAL GTH-BP-q4
    &END KIND
    &KIND O
      ELEMENT O
      BASIS_SET DZVP-GTH
      POTENTIAL GTH-BP-q6
    &END KIND
    &CELL
      ABC 4.802 4.802 4.802
    &END CELL
    &TOPOLOGY
      COORD_FILE_FORMAT XYZ
      COORD_FILE_NAME 0001-ec.xyz
    &END TOPOLOGY
  &END SUBSYS
  
  &DFT
    CHARGE 0
    
    BASIS_SET_FILE_NAME  GTH_BASIS_SET
    POTENTIAL_FILE_NAME  GTH_POTENTIALS
    
    &QS
      EPS_DEFAULT 1.0E-10
    &END QS
    
    &MGRID
      NGRIDS 4
      CUTOFF 300
      REL_CUTOFF 60
    &END MGRID
    
    &XC
      &XC_FUNCTIONAL BP
      &END XC_FUNCTIONAL
      &VDW_POTENTIAL
        POTENTIAL_TYPE PAIR_POTENTIAL
        &PAIR_POTENTIAL
          TYPE DFTD3
          PARAMETER_FILE_NAME dftd3.dat
          REFERENCE_FUNCTIONAL BP86
          CALCULATE_C9_TERM T
        &END PAIR_POTENTIAL
      &END VDW_POTENTIAL
    &END XC
    
    &SCF
      SCF_GUESS ATOMIC
      EPS_SCF 1.0E-7
      MAX_SCF 15000
      &OT T
      &END OT
    &END SCF
    
    &PRINT
      &MOMENTS SILENT
      &END MOMENTS
    &END PRINT
  &END DFT
&END FORCE_EVAL

&MOTION
  &GEO_OPT
    TYPE MINIMIZATION
    MAX_DR    1.0E-03
    MAX_FORCE 1.0E-03
    RMS_DR    1.0E-03
    RMS_FORCE 1.0E-03
    MAX_ITER 2000
    OPTIMIZER CG
    &CG
      MAX_STEEP_STEPS 0
      RESTART_LIMIT 9.0E-01
    &END CG
  &END GEO_OPT
&END MOTION
